
Gurobi 11.0.0 (win64) logging started Sat Jun 15 09:43:51 2024

Set parameter LogFile to value "./GurobiLog/stage_3_iter_3.log"
Gurobi Optimizer version 11.0.0 build v11.0.0rc2 (win64 - Windows 10.0 (18363.2))

CPU model: Intel(R) Core(TM) i7-8700 CPU @ 3.20GHz, instruction set [SSE2|AVX|AVX2]
Thread count: 6 physical cores, 12 logical processors, using up to 1 threads

Optimize a model with 1065 rows, 10910 columns and 18470 nonzeros
Coefficient statistics:
  Matrix range     [1e+00, 4e+01]
  Objective range  [2e+00, 2e+05]
  Bounds range     [1e+00, 1e+04]
  RHS range        [1e+00, 3e+04]
LP warm-start: use basis
Iteration    Objective       Primal Inf.    Dual Inf.      Time
       0   -2.9610575e+04   3.805110e+04   0.000000e+00      0s
     204    1.8839223e+04   0.000000e+00   0.000000e+00      0s

Solved in 204 iterations and 0.01 seconds (0.01 work units)
Optimal objective  1.883922333e+04

Gurobi 11.0.0 (win64) logging started Sat Jun 15 10:42:22 2024

Set parameter LogFile to value "./GurobiLog/stage_3_iter_3.log"
Gurobi Optimizer version 11.0.0 build v11.0.0rc2 (win64 - Windows 10.0 (18363.2))

CPU model: Intel(R) Core(TM) i7-8700 CPU @ 3.20GHz, instruction set [SSE2|AVX|AVX2]
Thread count: 6 physical cores, 12 logical processors, using up to 1 threads

Optimize a model with 1065 rows, 10910 columns and 18470 nonzeros
Coefficient statistics:
  Matrix range     [1e+00, 4e+01]
  Objective range  [2e+00, 2e+05]
  Bounds range     [2e-01, 1e+04]
  RHS range        [1e+00, 3e+04]
LP warm-start: use basis
Iteration    Objective       Primal Inf.    Dual Inf.      Time
       0   -5.7203905e+03   4.133224e+03   0.000000e+00      0s
     272    1.3377652e+04   0.000000e+00   0.000000e+00      0s

Solved in 272 iterations and 0.01 seconds (0.01 work units)
Optimal objective  1.337765173e+04

Gurobi 11.0.0 (win64) logging started Sat Jun 15 11:01:03 2024

Set parameter LogFile to value "./GurobiLog/stage_3_iter_3.log"
Gurobi Optimizer version 11.0.0 build v11.0.0rc2 (win64 - Windows 10.0 (18363.2))

CPU model: Intel(R) Core(TM) i7-8700 CPU @ 3.20GHz, instruction set [SSE2|AVX|AVX2]
Thread count: 6 physical cores, 12 logical processors, using up to 1 threads

Optimize a model with 1065 rows, 10910 columns and 18470 nonzeros
Coefficient statistics:
  Matrix range     [1e+00, 4e+01]
  Objective range  [2e+00, 2e+05]
  Bounds range     [1e+00, 4e+02]
  RHS range        [1e+00, 3e+04]
LP warm-start: use basis
Iteration    Objective       Primal Inf.    Dual Inf.      Time
       0   -1.6146468e+04   1.269186e+04   0.000000e+00      0s
     194    1.7489298e+04   0.000000e+00   0.000000e+00      0s

Solved in 194 iterations and 0.01 seconds (0.01 work units)
Optimal objective  1.748929833e+04
